(set-info :smt-lib-version 2.6)
(set-logic QF_S)
(set-info :source |
Generated by: Shaoke Cui
Generated on: 2025-04-10
Application: Using String Solvers to solve string matching problems
Target solver: Z3, Z3alpha, Z3-noodler
Benchmarks for string matching problem with wildcards, which needs to determine whether two strings containing two wildcards can match.
Use re.allchar and (re.* re.allchar) to represent wildcards.
Determine whether the two strings match by judging whether the result of re.inter is re.none.
|)
(set-info :license "https://creativecommons.org/licenses/by/4.0/")
(set-info :category "crafted")
(set-info :status unknown)
(assert (= re.none (re.inter  (re.++ (re.* re.allchar) (str.to_re "jkqbymxesfkm") (re.* re.allchar) (str.to_re "twls") re.allchar (str.to_re "dbgghugtvipfsn") (re.* re.allchar) re.allchar (str.to_re "lmimrwasbop") (re.* re.allchar) (str.to_re "q") re.allchar (str.to_re "defglsq") re.allchar (str.to_re "xspgnd") re.allchar (str.to_re "mzysfqrtzbuezrpcstehryxqdbuizlxbo") re.allchar (str.to_re "bxsocsqrxvvxnp") (re.* re.allchar) (str.to_re "ktcua") re.allchar (str.to_re "byki") re.allchar (str.to_re "fdelrvnpvty") (re.* re.allchar) (str.to_re "latsn") re.allchar (str.to_re "denosuextmmhuzdnkrkisngvwk") (re.* re.allchar) (str.to_re "takz") re.allchar (str.to_re "se") (re.* re.allchar) (str.to_re "mhy") re.allchar (str.to_re "ygwbhyhfhkzvagiskrfjwowfox") (re.* re.allchar) (str.to_re "qexjarijxqwnpfmxrfmhywfvvhwnfgcizskc") re.allchar (str.to_re "gw") re.allchar (str.to_re "qhii") re.allchar re.allchar (str.to_re "i") re.allchar (str.to_re "jnk") (re.* re.allchar) (str.to_re "q") (re.* re.allchar) (str.to_re "kyzvblfyxxipyethozeimauhkuyopugxdhtdce") (re.* re.allchar) (str.to_re "qbfsysqzbvnipb") re.allchar (str.to_re "kewudvuqlbbjmjcsgek") re.allchar (str.to_re "uovuqdcebigdbsyggj") re.allchar (str.to_re "hfdwyqvcgiiqtx") re.allchar (str.to_re "yig") re.allchar (str.to_re "lpq") (re.* re.allchar) (str.to_re "edmgagzyqzuxqss") (re.* re.allchar) (str.to_re "lpyrciobg") re.allchar (str.to_re "rzl") re.allchar (str.to_re "uphrjzmhtrrcsptgqsy") (re.* re.allchar) (str.to_re "rgfrk") (re.* re.allchar) (str.to_re "sfcn") (re.* re.allchar) (str.to_re "jqxhfsbgypqzpwaddyhtydqwvodzlkbufhrtkhbwrtqufolqjbluik") (re.* re.allchar) (str.to_re "ymqnzex") re.allchar (str.to_re "wdtpf") (re.* re.allchar) (str.to_re "rj") re.allchar (str.to_re "gzbkgxxqxceltwqcmoyik") (re.* re.allchar) (str.to_re "lxafnrtrrusqz") (re.* re.allchar) (str.to_re "lstzo") re.allchar re.allchar (str.to_re "ecaqfmwkaaucynpr") re.allchar (str.to_re "jodnmyff") (re.* re.allchar) (str.to_re "pqixma") (re.* re.allchar) (str.to_re "ojisrvsrqreetwhfv") (re.* re.allchar) (str.to_re "bervta") re.allchar (str.to_re "tpxobnrk") (re.* re.allchar) (str.to_re "jvmt") (re.* re.allchar) (str.to_re "rfoeqmv") (re.* re.allchar) (str.to_re "iutxplzoivfj") (re.* re.allchar) (str.to_re "by") (re.* re.allchar) (str.to_re "mayqigpkigx") re.allchar (str.to_re "kwbphacmscauxrmuzprdzviymogrronrqjmzdagayerjevfkvqhqgdsplshzqzn") (re.* re.allchar) (str.to_re "njopnpsspiglqqfj") re.allchar (str.to_re "by") (re.* re.allchar) (str.to_re "xgosceovuquaxie") (re.* re.allchar) (str.to_re "ryjdqu") (re.* re.allchar) (str.to_re "cgr") (re.* re.allchar) (str.to_re "exggsjrsnwwvlexzbrxjhv") re.allchar (str.to_re "snnwbkmhbkn") (re.* re.allchar) (str.to_re "ynqkixg") re.allchar (str.to_re "wsozadwavbwyjpzvkmswpjabyjuc") (re.* re.allchar) (str.to_re "vimuzijm") re.allchar (str.to_re "oygteijvezebkxf") (re.* re.allchar) re.allchar (str.to_re "rf") re.allchar (str.to_re "rziufgzzliqodmtbwnqiwpoybjrdfsolw") re.allchar (str.to_re "kbnox") re.allchar (str.to_re "fnvdfofaallbkozvtbkvoizyfbwffokhe") re.allchar (str.to_re "bf") (re.* re.allchar) (str.to_re "mdlzenhaigex") (re.* re.allchar) re.allchar (str.to_re "chtumfrzcffpxqaiukyxodhxkmmiuccekehflzwrfttvyw") (re.* re.allchar) (str.to_re "bgdzgdpqbypig") (re.* re.allchar) (re.* re.allchar) (str.to_re "hwdukcdz") (re.* re.allchar) (re.* re.allchar) (str.to_re "pphmggyvsmzkqccjhrsloapduopjocghjnwkdsy") (re.* re.allchar) (str.to_re "qrjtpyevcebjhgmz") re.allchar (str.to_re "dmr") (re.* re.allchar) (str.to_re "kmaldoeyzcyqqifltzdxlyyumw") re.allchar (str.to_re "kjfi") re.allchar (str.to_re "qtlnqgpdwtdyoploq") re.allchar (str.to_re "yyieyollglxktw") (re.* re.allchar) (str.to_re "n") (re.* re.allchar) (str.to_re "bpuilrzaxfmz") re.allchar (str.to_re "iouayfzhixlggehcfev") re.allchar (re.* re.allchar) (str.to_re "pw") re.allchar (re.* re.allchar) (str.to_re "wewqo") re.allchar (str.to_re "l") re.allchar (str.to_re "sxfbkgsxbvnzdlrlqvntzrigrgpi") re.allchar (str.to_re "vgzp") (re.* re.allchar) (str.to_re "qqnusttzczfign") (re.* re.allchar) re.allchar (str.to_re "vzgejukb") (re.* re.allchar) (str.to_re "zcymwxjnyowylqcrasykzao") )   (re.++ (str.to_re "nqusoshhupboab") re.allchar (str.to_re "ogy") (re.* re.allchar) (str.to_re "cjpgtfburjuhj") (re.* re.allchar) re.allchar (str.to_re "gq") re.allchar (str.to_re "dnvmigflbsmoxvufdjmglbcvsyulsye") re.allchar (str.to_re "pqhlziporkvz") (re.* re.allchar) (str.to_re "hsajsghpkxrncfbyhs") re.allchar (str.to_re "yftk") re.allchar (str.to_re "d") (re.* re.allchar) re.allchar (str.to_re "rij") re.allchar (str.to_re "biubkmmpjngl") re.allchar (str.to_re "hyfqnvymkvrktzwvlebslzaqubtub") (re.* re.allchar) (str.to_re "vzvyvfxxpzj") re.allchar (str.to_re "qdrhcroktiw") (re.* re.allchar) (str.to_re "nanaregqlirazjtuyehuuckltghajrb") (re.* re.allchar) (str.to_re "cxrahgrmejc") re.allchar (str.to_re "pzloywc") re.allchar (str.to_re "kpdwuv") re.allchar (str.to_re "bbv") (re.* re.allchar) (str.to_re "mcvx") (re.* re.allchar) (str.to_re "narwfanhfjegyk") (re.* re.allchar) (str.to_re "shswfnnggpjfbvajepxvhkzsfnrznwvj") re.allchar (str.to_re "tlyq") (re.* re.allchar) (str.to_re "tdbhdsdciytmatuvowx") re.allchar (str.to_re "tbycfqvvljlfsjf") (re.* re.allchar) (str.to_re "qaycqy") re.allchar (str.to_re "rjkv") re.allchar (str.to_re "sspzgwsyrnwwguvuasugwcdc") re.allchar (re.* re.allchar) (str.to_re "pzfacomzzhgzvzixjeqevbmfnsxowcgsyjogenxdasyu") (re.* re.allchar) (str.to_re "yytxzmta") re.allchar (str.to_re "cowsulh") re.allchar (str.to_re "wftchmiqzpvypomjtckqkxpzujmqvpgewciqpkzofrzrvdvqyi") (re.* re.allchar) (str.to_re "bnwjp") (re.* re.allchar) (str.to_re "yrwjdbocjrothpiahvp") re.allchar (str.to_re "aaepycebrx") (re.* re.allchar) (str.to_re "ujj") (re.* re.allchar) (str.to_re "czipaurnpwsp") re.allchar (str.to_re "bkaefqgaop") re.allchar (str.to_re "wvummmfaycldbihadkyle") (re.* re.allchar) (str.to_re "orjnilasohvnvqhsxaedgvdphcootiphfmucgyxxywyno") re.allchar (str.to_re "wylcqbthexjg") (re.* re.allchar) (str.to_re "vgprogknklfgf") (re.* re.allchar) (str.to_re "dbubdgbjngeewcbimeziehkpowyrzsagy") (re.* re.allchar) (str.to_re "imim") (re.* re.allchar) (re.* re.allchar) (str.to_re "sepnac") (re.* re.allchar) (str.to_re "mt") re.allchar (str.to_re "xst") (re.* re.allchar) (str.to_re "x") (re.* re.allchar) (str.to_re "awswitejcecjhkllngxkvgrjvar") re.allchar (str.to_re "zzliyfjlqtugssqzxwkbdm") (re.* re.allchar) (str.to_re "wyoxfjrfyrehrqchsfmhtldjdkofhe") re.allchar (str.to_re "u") re.allchar (str.to_re "xvyotidmbijxbybjsbcnnyyiipgkmgsfvgbmhgvywnneq") re.allchar (str.to_re "vv") re.allchar (str.to_re "rye") (re.* re.allchar) (str.to_re "stpyxtbtkdayj") re.allchar (str.to_re "ltpgphbm") (re.* re.allchar) (str.to_re "rzqp") re.allchar (str.to_re "guewszsm") re.allchar (str.to_re "wbqheqbufybuuz") re.allchar (str.to_re "zasqrhydpcllwggvuwmqkjfofkahvhk") (re.* re.allchar) (str.to_re "amtllfycpfmckpmlilzk") (re.* re.allchar) (re.* re.allchar) (str.to_re "fkbnjoq") re.allchar (str.to_re "dauufmbqqco") (re.* re.allchar) (str.to_re "vkfv") (re.* re.allchar) (str.to_re "pc") re.allchar (str.to_re "jxdbamibecsqlyexcnid") re.allchar (str.to_re "yada") re.allchar (str.to_re "kkwhxvlrewlmjtgikhjwb") (re.* re.allchar) (str.to_re "fydiksfueixuvpmcczoaejcoyacjroqqbbupcygsdsrcgxny") (re.* re.allchar) (str.to_re "jmczidapm") (re.* re.allchar) (str.to_re "cyqhy") (re.* re.allchar) re.allchar (str.to_re "yvcjkchadhulymummdzufl") re.allchar (str.to_re "aerdtjwbgtwbxdivqilw") (re.* re.allchar) (str.to_re "thokkietemqkhcucmixaitqu") re.allchar (str.to_re "lfm") (re.* re.allchar) (str.to_re "sf") re.allchar (str.to_re "g") re.allchar (str.to_re "pn") re.allchar (str.to_re "mmgslsxevqwtws") re.allchar (str.to_re "aivvnjlp") (re.* re.allchar) (str.to_re "gnvvy") re.allchar (str.to_re "epcbaxoxidjepoep") re.allchar (str.to_re "wttesfqvohatgh") re.allchar (re.* re.allchar) (re.* re.allchar) re.allchar (str.to_re "s") re.allchar (str.to_re "zkzustq") re.allchar (str.to_re "aw") re.allchar (str.to_re "tkpzilquexurnyasnjpzzkg") (re.* re.allchar) (str.to_re "zq") (re.* re.allchar) (str.to_re "uryhejvbrvlfwtm") re.allchar (str.to_re "yndjhindteotuwstpfqwh") (re.* re.allchar) (str.to_re "dxhbnoryoj") re.allchar (str.to_re "dfjrxrujeszcwd") (re.* re.allchar) (str.to_re "femvnltbqgfqpoxdu") re.allchar (str.to_re "upesdgetsrbprltgpjicwiukhbpwfdgskwqktrzoxnniiblsdwzlzynf") (re.* re.allchar) (str.to_re "u") re.allchar (str.to_re "wcxheohoxvvarhheh") re.allchar re.allchar (str.to_re "hxuliujipxh") (re.* re.allchar) (str.to_re "hkzimtyyw") (re.* re.allchar) (str.to_re "qtfnnnkkgnybkcdpctxmjbugydgdmgiwmlwyxtkqx") re.allchar (str.to_re "dcgiycd") re.allchar (str.to_re "tmgxjqhjwpqiadb") re.allchar (str.to_re "ykorcthbknelgyeegudtzbkpxbvupkmxqagmyedhms") re.allchar (str.to_re "spybcddmpcyexlr") re.allchar (str.to_re "uxbzhtlocferdfwyjqroxsm") re.allchar (str.to_re "l") (re.* re.allchar) (str.to_re "cpwvf") re.allchar (str.to_re "njzaget") re.allchar (str.to_re "rewcg") re.allchar (str.to_re "e") (re.* re.allchar) (str.to_re "zybumgtztrit") re.allchar (str.to_re "benbfweviqvdkhwlepdktwdcufcgq") (re.* re.allchar) (str.to_re "ljxsq") re.allchar (str.to_re "lg") re.allchar (str.to_re "luydot") re.allchar (str.to_re "bktenjhqyglpwbajcazbew") re.allchar (str.to_re "wowxh") re.allchar (str.to_re "m") (re.* re.allchar) (str.to_re "lippmmgtoyvmw") re.allchar (str.to_re "z") (re.* re.allchar) (str.to_re "hnian") (re.* re.allchar) (str.to_re "zmlridgqpulgnwwsogstthhaypiixzoydkgtcmb") (re.* re.allchar) (str.to_re "hcstt") (re.* re.allchar) (str.to_re "c") re.allchar (str.to_re "xs") re.allchar (str.to_re "bswko") (re.* re.allchar) (str.to_re "afpgmdnotk") (re.* re.allchar) (str.to_re "zmqpvwzbuusjtapwqi") re.allchar (str.to_re "lhtzcnwjatfenpnqowl") (re.* re.allchar) (str.to_re "oereadjlvclht") re.allchar (str.to_re "cwtudpllnez") (re.* re.allchar) (str.to_re "xubkgaocsfnzbybeveis") (re.* re.allchar) re.allchar (str.to_re "xxaiqdezk") (re.* re.allchar) (str.to_re "c") (re.* re.allchar) (str.to_re "ruuc") (re.* re.allchar) (str.to_re "dqctglhr") re.allchar (str.to_re "iiyl") (re.* re.allchar) (str.to_re "adakgzogvweoswsugayqlzfb") (re.* re.allchar) (str.to_re "mbhyjm") (re.* re.allchar) (str.to_re "rnz") (re.* re.allchar) (str.to_re "w") re.allchar (str.to_re "cgdpnrs") re.allchar (str.to_re "yirplfi") re.allchar (str.to_re "iavbhvvpvrncsb") (re.* re.allchar) re.allchar (str.to_re "cqzbnqadelcahuvmpquivwyhdjqdcwdltcee") (re.* re.allchar) (str.to_re "tttwrvgtjllznodjepqksx") re.allchar (str.to_re "celvg") re.allchar (str.to_re "brxnqpoknqjuayhbdw") re.allchar (str.to_re "tsoqxcfdmsbnmhkjuf") (re.* re.allchar) (str.to_re "jllajfarkafnxtbdbxegevsywivesenkzilozeccjcuwknnmhazmgzmtalzlajtkmckthtwsrtgep") (re.* re.allchar) (str.to_re "jfaydbkaigxjtdpaeegwspoalykzw") re.allchar (str.to_re "rsdg") re.allchar (str.to_re "vznlwdadkwdsqigj") re.allchar (str.to_re "cqbzoiaguymt") (re.* re.allchar) (str.to_re "wotuipiqzoqpzsblngvlxxpzfdduugquodefvrksssaxehgtxjwatoucrmwm") (re.* re.allchar) (str.to_re "g") re.allchar (str.to_re "auebdfrjr") re.allchar (str.to_re "wtwnuozpxhudktuwyflcqklypbiuxkhmkuvi") re.allchar (str.to_re "mamxnnnchjgbxghwi") (re.* re.allchar) (str.to_re "vcnffbykepmleiovpn") (re.* re.allchar) (str.to_re "khpyifiqdsbcyrcgdlaolnvvw") (re.* re.allchar) re.allchar (str.to_re "bbo") re.allchar (str.to_re "htrdepqpaknpjgxobkqlfiqbybjetiutaze") re.allchar (str.to_re "nmlhmontcenogkujj") (re.* re.allchar) (str.to_re "fiyxya") re.allchar (str.to_re "iaqfrwjgvjltffkjsjsdhckodme") (re.* re.allchar) (str.to_re "yhrwc") (re.* re.allchar) (str.to_re "zzqkkejztfcrzcfgydlqvrfgqpapuitxwhlt") re.allchar (str.to_re "mbriocvmyfcmmf") re.allchar (str.to_re "shpmguyexrwzonaweceqzwaogjenyvxox") (re.* re.allchar) (str.to_re "nnbbr") (re.* re.allchar) (str.to_re "s") (re.* re.allchar) (str.to_re "jpxgztfrkecusvdfjvwdqcsaxm") re.allchar (str.to_re "dxirurit") (re.* re.allchar) (str.to_re "nntogdzvszfdkbd") (re.* re.allchar) (str.to_re "fjzp") (re.* re.allchar) (str.to_re "ejxet") re.allchar (str.to_re "qqhjmsbpvdzh") (re.* re.allchar) (str.to_re "anrrbjbate") (re.* re.allchar) (str.to_re "jhksvjzpfwfujjnrimcfvoajoypsocuvjfftpskhqsyjjohebeabn") re.allchar (str.to_re "lwyxt") re.allchar (str.to_re "aucspwrjmpqeqywixxptaezlnoxgpcqiqqoejlmvqyffbpmojxntladbcgvup") re.allchar (str.to_re "dowwqpv") (re.* re.allchar) (str.to_re "uqpzkqfst") re.allchar re.allchar (str.to_re "cdfuihfhhnkfmwopglfinv") (re.* re.allchar) (str.to_re "wb") (re.* re.allchar) (str.to_re "fovyemxdqdslav") re.allchar (str.to_re "dl") re.allchar (str.to_re "kvyatgfhutof") (re.* re.allchar) re.allchar (str.to_re "alqivcwey") re.allchar (str.to_re "kejyqdozfbt") (re.* re.allchar) (str.to_re "kksyjwqreluhhcfaksvvb") re.allchar (str.to_re "hzndrfkhqrmegj") (re.* re.allchar) (str.to_re "k") (re.* re.allchar) (str.to_re "iuxxiutcmrmnbyv") (re.* re.allchar) (str.to_re "bxncbgn") (re.* re.allchar) (str.to_re "tlkkfw") (re.* re.allchar) (str.to_re "nbhnledufdbfxvvtzfczjy") (re.* re.allchar) (str.to_re "fesjzkwvp") (re.* re.allchar) (str.to_re "ueieozm") re.allchar (str.to_re "uj") (re.* re.allchar) (str.to_re "qftffdq") (re.* re.allchar) (str.to_re "h") re.allchar (str.to_re "byvqjhmaypbdlaabmbxhkwqra") re.allchar (str.to_re "jblibfvbtuc") (re.* re.allchar) (str.to_re "faskkoz") re.allchar (str.to_re "gtidnlsferabinbltqkgdccky") re.allchar (str.to_re "lqsr") (re.* re.allchar) (str.to_re "vki") (re.* re.allchar) (str.to_re "rqfqxbjkekmhbixjsfzntqqktp") (re.* re.allchar) (str.to_re "ptyzqiux") re.allchar (str.to_re "swslu") (re.* re.allchar) (str.to_re "fomr") (re.* re.allchar) (str.to_re "sfgispvvkjocsnkza") (re.* re.allchar) (str.to_re "poueejmixwewnqdbwquoy") (re.* re.allchar) (str.to_re "zjliuvzebuqzclfp") re.allchar (str.to_re "hqljufbiqhrzdghmp") (re.* re.allchar) (str.to_re "p") re.allchar (str.to_re "rpiwmcshzu") (re.* re.allchar) (str.to_re "fedhzd") re.allchar (str.to_re "jyqnhbp") (re.* re.allchar) (str.to_re "l") (re.* re.allchar) (str.to_re "jgmktsysyeymdgepya") (re.* re.allchar) (str.to_re "iuszb") (re.* re.allchar) (str.to_re "rptwjqsoztosqyynchcvdzzxukxul") (re.* re.allchar) (str.to_re "zirydw") (re.* re.allchar) (str.to_re "ngjzgiwn") (re.* re.allchar) (str.to_re "oxsnyyznq") (re.* re.allchar) (str.to_re "lwerqhzruwyoxajlaehlbku") (re.* re.allchar) (str.to_re "illkobykpfblberyk") re.allchar (str.to_re "jcg") re.allchar (str.to_re "sbotmmsry") (re.* re.allchar) (str.to_re "kiuckbymhhfs") (re.* re.allchar) (str.to_re "iipawjikc") re.allchar (str.to_re "qsflvnyd") re.allchar (str.to_re "lmmhgxruyj") (re.* re.allchar) re.allchar (str.to_re "ukg") (re.* re.allchar) (str.to_re "ipjgwyqrrzsx") (re.* re.allchar) (str.to_re "riugmvprcnox") re.allchar (str.to_re "v") (re.* re.allchar) (re.* re.allchar) (str.to_re "u") (re.* re.allchar) (str.to_re "vdhb") (re.* re.allchar) (str.to_re "qqec") re.allchar (str.to_re "cnqdhdpr") (re.* re.allchar) (str.to_re "jtf") (re.* re.allchar) (str.to_re "px") (re.* re.allchar) re.allchar (str.to_re "xyd") (re.* re.allchar) (str.to_re "e") re.allchar (str.to_re "uxcluqvu") re.allchar (str.to_re "bqti") re.allchar (str.to_re "dxqeqkhxictjia") (re.* re.allchar) (str.to_re "sydgxxrlirharmqgsbyddkbnmkkntauzbppjwybwhvdgfexnmyyuyallsijm") (re.* re.allchar) (str.to_re "rjjgnseltbv") (re.* re.allchar) (str.to_re "sh") (re.* re.allchar) (str.to_re "nlhwjx") re.allchar (str.to_re "etdatryfvgjvtkmmnykcpsmnxnpji") (re.* re.allchar) (str.to_re "jnqtylmbxadxc") re.allchar (str.to_re "vqippsdtqbbrxijcmtptwdwwdhbffhvn") (re.* re.allchar) (str.to_re "igcrnkxtczdticct") re.allchar (str.to_re "s") (re.* re.allchar) (str.to_re "psrhdapiekmrcls") (re.* re.allchar) (str.to_re "dbyaqsuqcud") (re.* re.allchar) (str.to_re "uhbeikjeo") re.allchar (str.to_re "mpxdjeeejbulzceuht") re.allchar (str.to_re "x") re.allchar (str.to_re "umccltpakvjkz") (re.* re.allchar) (str.to_re "witmyswjuenzupfmktyhoncydkwwczrlsprfczzgtcsujmursgenvayvbifvzrsii") )  )))
(check-sat)
(exit)
